3 
4 
5  08 23 37 44 52 59 
6  07 14 21 29 36 44 51 59 
7  06 14 21 29 36 44 51 59 
8  06 14 21 29 36 44 51 59 
9  06 14 21 29 36 44 51 59 
10  06 14 21 29 36 44 51 59 
11  06 14 21 29 36 44 51 59 
12  06 14 21 29 36 44 51 59 
13  06 14 21 29 36 44 51 59 
14  06 14 21 29 36 43 50 59 
15  06 14 21 29 36 44 51 59 
16  06 14 21 29 36 44 51 59 
17  06 14 21 29 36 44 51 59 
18  06 14 21 29 36 43 50 58 
19  05 12 20 27 35 42 50 57 
20  12 27 42 59 
21  14 29 44 59 
22  14 29 44 
23 
